3
40
11148
[[810,473,299,  1,917,369,820,847,447,725,886,806,468,698,182,986,728,873,619,356, 83,193,290, 83,404,854,214,150,514,859,120,784, 90,966,284, 53,935,972,198,458],
 [ 83,877,435,201,580, 52, 43,761,835,111,712,456,819,753,346, 65,606,739,325,966,471,147,871,644,947, 52,671,641,527,248,646,213,957, 91,416,145,266,790,974,210],
 [510,102,278,656,410,357,948, 61,390,478,170,  1,288,287,847,457,180,737,  6,632,468,758, 61,958,851,609,936,579,967,407,490,663,758,729,246,652,754,258,744,358]]
[523,495,297,707,937,946,880,943,374,413,304,316,549, 38,669,431,937,829, 16,570,882,381,644,572,661,906,226,891,828,140, 20,924,262,709,963,931,150,738, 58,236]